000 000 000 000 000 000 000 000 000 000 000 000 000 000 001 001 003 002 001 000 000 000 -99 000 001 002 000 000 000 -99 000
000 000 000 000 000 000 000 000 000 000 -99 -99 000 000 000 001 001 001 001 000 000 000 000 000 000 002 000 000 000 -99 -99
000 000 000 000 000 000 000 000 000 000 -99 -99 -99 000 000 000 000 001 000 000 000 000 000 000 000 000 000 -99 -99 -99 -99
000 000 000 000 000 000 000 000 000 000 -99 -99 -99 000 000 000 000 000 000 000 000 000 000 -99 -99 -99 -99 -99 -99 -99 -99
000 000 000 000 000 000 000 000 000 000 -99 -99 -99 000 000 000 000 000 000 000 000 000 -99 -99 -99 -99 -99 -99 -99 -99 -99
000 000 000 000 000 000 000 000 000 -99 -99 -99 -99 000 000 000 000 000 000 000 000 000 -99 -99 -99 -99 -99 -99 -99 -99 -99
000 000 000 000 000 000 000 000 000 000 -99 -99 -99 -99 000 000 -99 000 -99 000 000 -99 -99 -99 -99 -99 -99 -99 -99 -99 -99
000 000 000 000 000 000 000 -99 000 000 000 -99 -99 -99 000 000 -99 -99 000 000 000 000 -99 -99 -99 -99 -99 -99 -99 -99 -99
000 000 000 000 000 000 -99 000 000 000 000 -99 -99 -99 000 000 -99 -99 -99 000 000 -99 -99 -99 -99 -99 -99 -99 -99 -99 -99
000 000 000 000 000 000 -99 000 000 000 000 -99 -99 -99 000 000 -99 000 000 000 000 -99 -99 -99 -99 -99 -99 -99 -99 -99 -99
000 000 000 000 000 000 -99 000 000 000 000 000 -99 -99 -99 000 000 000 000 000 000 -99 -99 -99 -99 -99 -99 -99 -99 -99 -99
000 000 000 000 000 000 000 000 000 000 000 000 000 000 -99 000 000 000 000 000 000 -99 -99 -99 -99 -99 -99 -99 -99 -99 000
000 000 000 000 000 000 000 000 000 000 000 000 000 000 -99 000 000 000 000 000 000 000 -99 -99 000 000 000 000 -99 -99 000
000 000 000 000 000 000 000 000 000 -99 000 000 000 000 -99 -99 -99 000 000 000 000 000 -99 -99 000 -99 000 000 -99 -99 -99
000 000 000 000 000 000 000 000 000 -99 -99 -99 -99 000 000 -99 000 000 000 000 000 000 -99 000 000 -99 000 -99 -99 -99 -99
000 000 000 -99 000 000 000 000 000 -99 -99 -99 000 000 000 000 000 000 000 000 000 000 -99 000 000 -99 -99 -99 -99 -99 -99
000 000 -99 -99 000 000 000 000 000 -99 000 000 000 000 000 000 000 000 000 000 000 000 000 -99 -99 -99 -99 -99 -99 -99 -99
000 000 000 -99 000 000 000 000 000 000 -99 -99 -99 -99 000 -99 000 000 000 -99 -99 000 000 -99 -99 -99 -99 -99 -99 -99 -99
000 000 000 000 -99 -99 -99 000 000 000 -99 -99 -99 -99 000 -99 000 000 000 -99 000 000 000 -99 -99 -99 -99 -99 -99 -99 -99
000 000 000 000 -99 -99 -99 000 000 -99 -99 -99 -99 000 000 -99 000 000 000 000 000 000 000 -99 -99 -99 -99 -99 -99 -99 -99
000 000 000 000 000 -99 -99 000 000 -99 -99 -99 -99 000 000 000 000 000 000 000 000 000 000 -99 -99 -99 -99 -99 -99 -99 -99
000 000 000 000 000 -99 -99 -99 000 -99 -99 -99 -99 000 000 000 000 000 000 000 000 000 000 -99 -99 -99 -99 -99 -99 -99 -99
000 000 000 000 000 000 -99 -99 000 000 -99 -99 000 000 000 000 000 000 000 000 000 000 000 -99 -99 -99 -99 -99 -99 -99 -99
000 000 000 000 -99 000 000 000 000 000 -99 -99 -99 000 000 000 000 000 000 000 000 000 000 -99 -99 -99 -99 -99 -99 -99 -99
000 000 000 000 000 000 000 000 000 000 000 -99 000 000 000 000 000 000 000 000 -99 000 000 -99 -99 -99 -99 -99 -99 -99 -99
000 000 000 000 000 000 000 000 000 000 000 -99 -99 000 000 000 000 000 000 000 -99 -99 000 -99 -99 -99 -99 -99 -99 -99 000
000 000 000 000 000 000 000 000 000 000 -99 -99 000 000 000 000 000 000 000 000 -99 -99 -99 -99 -99 -99 -99 -99 -99 -99 000
000 000 000 000 000 000 000 000 000 -99 -99 -99 000 000 000 000 000 000 000 000 -99 -99 -99 -99 -99 -99 -99 -99 -99 -99 -99
000 000 -99 000 000 000 000 000 000 -99 -99 -99 000 000 000 -99 000 000 000 000 -99 000 -99 -99 -99 -99 -99 -99 -99 -99 -99
000 -99 -99 000 000 000 -99 000 000 -99 -99 -99 000 000 000 000 000 000 000 000 -99 -99 -99 -99 -99 -99 -99 -99 -99 -99 -99
-99 000 000 000 000 -99 000 000 000 -99 -99 -99 -99 000 000 000 000 000 000 000 -99 000 -99 -99 -99 -99 -99 -99 -99 -99 -99
-99 000 000 000 000 -99 000 000 000 -99 -99 -99 -99 -99 000 000 000 000 000 -99 000 000 -99 -99 000 000 -99 -99 -99 -99 -99
000 000 000 000 000 -99 000 000 000 -99 -99 -99 000 -99 -99 000 000 000 000 -99 -99 000 -99 000 000 000 -99 000 000 000 -99
000 000 000 000 000 000 000 000 -99 -99 -99 000 -99 -99 -99 000 000 000 000 -99 -99 000 -99 000 000 000 -99 000 000 000 000
000 000 000 000 000 000 000 000 000 000 000 000 000 -99 000 000 000 -99 -99 -99 000 000 000 000 000 000 000 000 000 000 000
000 000 000 000 000 000 000 000 000 000 000 000 000 000 000 000 000 000 -99 000 000 000 000 000 000 000 000 000 000 000 000
-99 000 000 000 000 000 000 000 000 000 000 -99 000 000 000 000 000 000 -99 000 000 000 000 000 000 000 000 000 000 000 000
-99 000 000 000 000 000 000 000 000 000 -99 -99 000 000 000 000 000 000 000 000 000 000 000 000 000 000 000 000 000 000 -99
000 000 000 -99 000 000 000 000 000 000 -99 -99 000 000 000 000 000 000 -99 000 -99 000 000 000 000 -99 000 000 000 000 -99
000 000 000 000 000 000 000 000 000 000 000 -99 000 000 000 000 000 000 -99 -99 000 -99 -99 000 -99 000 -99 000 000 000 -99
000 -99 000 000 000 000 000 000 000 000 -99 -99 -99 000 -99 000 000 000 000 000 000 -99 000 000 000 000 000 -99 -99 -99 -99
-99 000 000 000 000 000 000 000 000 000 -99 -99 000 000 000 000 000 -99 000 000 000 -99 000 000 000 -99 -99 -99 -99 -99 -99
000 000 000 000 000 000 000 -99 -99 000 000 000 000 000 000 000 000 -99 000 000 -99 -99 -99 000 000 000 -99 -99 -99 -99 -99
000 000 000 -99 000 000 -99 -99 000 000 000 000 000 000 000 000 -99 -99 000 000 -99 -99 000 000 000 -99 -99 -99 -99 -99 -99
000 000 -99 -99 000 000 -99 -99 000 000 000 -99 000 000 000 000 000 000 000 000 -99 -99 -99 000 000 -99 000 000 -99 -99 -99
000 -99 -99 000 000 000 000 -99 000 000 000 000 000 000 000 000 000 000 000 000 000 -99 -99 000 000 -99 000 000 -99 -99 -99
000 -99 -99 -99 -99 000 -99 -99 000 000 000 000 000 000 000 000 000 -99 -99 000 000 000 000 000 000 000 000 -99 -99 -99 -99
-99 -99 -99 -99 -99 -99 -99 -99 -99 000 000 000 000 000 000 -99 -99 -99 -99 -99 000 000 000 000 000 000 000 -99 -99 -99 -99
-99 -99 -99 -99 -99 -99 -99 -99 -99 000 000 000 000 000 000 -99 -99 -99 -99 -99 000 001 000 000 000 000 -99 000 -99 -99 -99
-99 -99 -99 -99 -99 -99 -99 -99 -99 000 000 000 000 000 -99 -99 -99 -99 -99 -99 000 000 -99 000 000 -99 -99 000 -99 -99 -99
-99 -99 -99 -99 -99 -99 -99 000 000 000 000 000 000 000 -99 000 -99 -99 -99 -99 000 000 -99 -99 -99 -99 000 -99 -99 -99 -99
000 000 -99 -99 -99 -99 -99 -99 000 000 000 000 000 000 000 -99 -99 -99 -99 000 000 -99 -99 -99 -99 000 000 -99 -99 -99 -99
000 000 -99 -99 -99 000 000 -99 -99 -99 000 000 002 002 000 -99 -99 000 000 000 000 -99 -99 -99 -99 -99 -99 -99 -99 -99 -99
004 000 000 -99 000 000 000 -99 -99 000 000 003 008 002 000 -99 -99 000 000 -99 -99 -99 -99 -99 -99 -99 -99 -99 -99 -99 -99
001 000 000 000 000 001 -99 -99 -99 000 001 004 006 000 000 000 000 -99 -99 -99 -99 -99 -99 -99 -99 -99 -99 -99 -99 -99 -99
